Cost: 576
0-12-24-56-23-63-33-6-0
0-7-35-8-13-27-29-0
0-30-28-61-64-22-62-2-0
0-34-52-54-59-53-38-58-0
0-26-39-55-25-32-40-17-0
0-21-36-60-20-37-15-57-0
Cost: 576
0-26-39-55-25-32-40-17-0
0-2-62-22-64-61-28-30-0
0-7-35-8-13-27-29-0
0-57-15-37-20-60-36-21-0
0-34-52-54-59-53-38-58-0
0-12-24-56-23-63-33-6-0
Cost: 576
0-12-24-56-23-63-33-6-0
0-7-35-8-13-27-29-0
0-30-28-61-64-22-62-2-0
0-34-52-54-59-53-38-58-0
0-26-39-55-25-32-40-17-0
0-21-36-60-20-37-15-57-0
Cost: 576
0-58-38-53-59-54-52-34-0
0-2-62-22-64-61-28-30-0
0-7-35-8-13-27-29-0
0-57-15-37-20-60-36-21-0
0-12-24-56-23-63-33-6-0
0-26-39-55-25-32-40-17-0
Cost: 576
0-7-35-8-13-27-29-0
0-58-38-53-59-54-52-34-0
0-2-62-22-64-61-28-30-0
0-26-39-55-25-32-40-17-0
0-6-33-63-23-56-24-12-0
0-57-15-37-20-60-36-21-0
Cost: 576
0-2-62-22-64-61-28-30-0
0-34-52-54-59-53-38-58-0
0-12-24-56-23-63-33-6-0
0-26-39-55-25-32-40-17-0
0-21-36-60-20-37-15-57-0
0-29-27-13-8-35-7-0
Cost: 576
0-2-62-22-64-61-28-30-0
0-57-15-37-20-60-36-21-0
0-17-40-32-25-55-39-26-0
0-6-33-63-23-56-24-12-0
0-34-52-54-59-53-38-58-0
0-7-35-8-13-27-29-0
Cost: 576
0-57-15-37-20-60-36-21-0
0-17-40-32-25-55-39-26-0
0-2-62-22-64-61-28-30-0
0-7-35-8-13-27-29-0
0-12-24-56-23-63-33-6-0
0-34-52-54-59-53-38-58-0
Cost: 576
0-34-52-54-59-53-38-58-0
0-2-62-22-64-61-28-30-0
0-21-36-60-20-37-15-57-0
0-6-33-63-23-56-24-12-0
0-17-40-32-25-55-39-26-0
0-7-35-8-13-27-29-0
Cost: 576
0-6-33-63-23-56-24-12-0
0-7-35-8-13-27-29-0
0-21-36-60-20-37-15-57-0
0-26-39-55-25-32-40-17-0
0-2-62-22-64-61-28-30-0
0-58-38-53-59-54-52-34-0
Cost: 576
0-34-52-54-59-53-38-58-0
0-29-27-13-8-35-7-0
0-6-33-63-23-56-24-12-0
0-2-62-22-64-61-28-30-0
0-26-39-55-25-32-40-17-0
0-57-15-37-20-60-36-21-0
Cost: 576
0-29-27-13-8-35-7-0
0-17-40-32-25-55-39-26-0
0-6-33-63-23-56-24-12-0
0-21-36-60-20-37-15-57-0
0-30-28-61-64-22-62-2-0
0-34-52-54-59-53-38-58-0
Cost: 576
0-29-27-13-8-35-7-0
0-2-62-22-64-61-28-30-0
0-17-40-32-25-55-39-26-0
0-34-52-54-59-53-38-58-0
0-12-24-56-23-63-33-6-0
0-21-36-60-20-37-15-57-0
Cost: 576
0-26-39-55-25-32-40-17-0
0-12-24-56-23-63-33-6-0
0-58-38-53-59-54-52-34-0
0-30-28-61-64-22-62-2-0
0-29-27-13-8-35-7-0
0-57-15-37-20-60-36-21-0
Cost: 576
0-30-28-61-64-22-62-2-0
0-58-38-53-59-54-52-34-0
0-7-35-8-13-27-29-0
0-12-24-56-23-63-33-6-0
0-26-39-55-25-32-40-17-0
0-57-15-37-20-60-36-21-0
Cost: 576
0-34-52-54-59-53-38-58-0
0-30-28-61-64-22-62-2-0
0-57-15-37-20-60-36-21-0
0-7-35-8-13-27-29-0
0-26-39-55-25-32-40-17-0
0-6-33-63-23-56-24-12-0
Cost: 576
0-30-28-61-64-22-62-2-0
0-58-38-53-59-54-52-34-0
0-7-35-8-13-27-29-0
0-26-39-55-25-32-40-17-0
0-21-36-60-20-37-15-57-0
0-33-63-23-56-24-3-12-0
Cost: 576
0-57-15-37-20-60-36-21-0
0-12-24-56-23-63-33-6-0
0-34-52-54-59-53-38-58-0
0-26-39-55-25-32-40-17-0
0-7-35-8-13-27-29-0
0-2-62-22-64-61-28-30-0
Cost: 576
0-57-15-37-20-60-36-21-0
0-12-24-56-23-63-33-6-0
0-34-52-54-59-53-38-58-0
0-26-39-55-25-32-40-17-0
0-7-35-8-13-27-29-0
0-2-62-22-64-61-28-30-0
Cost: 576
0-57-15-37-20-60-36-21-0
0-6-33-63-23-56-24-12-0
0-7-35-8-13-27-29-0
0-26-39-55-25-32-40-17-0
0-30-28-61-64-22-62-2-0
0-58-38-53-59-54-52-34-0
Cost: 576
0-57-15-37-20-60-36-21-0
0-6-33-63-23-56-24-12-0
0-7-35-8-13-27-29-0
0-26-39-55-25-32-40-17-0
0-30-28-61-64-22-62-2-0
0-58-38-53-59-54-52-34-0
Cost: 576
0-30-28-61-64-22-62-2-0
0-29-27-13-8-35-7-0
0-12-24-56-23-63-33-6-0
0-34-52-54-59-53-38-58-0
0-26-39-55-25-32-40-17-0
0-21-36-60-20-37-15-57-0
Cost: 576
0-57-15-37-20-60-36-21-0
0-6-33-63-23-56-24-12-0
0-7-35-8-13-27-29-0
0-26-39-55-25-32-40-17-0
0-30-28-61-64-22-62-2-0
0-58-38-53-59-54-52-34-0
Cost: 576
0-30-28-61-64-22-62-2-0
0-58-38-53-59-54-52-34-0
0-7-35-8-13-27-29-0
0-26-39-55-25-32-40-17-0
0-21-36-60-20-37-15-57-0
0-33-63-23-56-24-3-12-0
Cost: 576
0-57-15-37-20-60-36-21-0
0-12-24-56-23-63-33-6-0
0-34-52-54-59-53-38-58-0
0-26-39-55-25-32-40-17-0
0-7-35-8-13-27-29-0
0-2-62-22-64-61-28-30-0
Cost: 0
Cost: 0
Cost: 0
Cost: 576
0-29-27-13-8-35-7-0
0-26-39-55-25-32-40-17-0
0-34-52-54-59-53-38-58-0
0-6-33-63-23-56-24-12-0
0-21-36-60-20-37-15-57-0
0-30-28-61-64-22-62-2-0
Cost: 0
